data/solutions/recovery/degenerate/intermediate/flexible/degenerate_intermediate_instance23/25.sol
Elapsed time: 100.09
Upper bound: 227270934.0
Planning weighted value: 8.96008037675e+11
C[0]=227270934.0
C[1]=227108241.0
C[2]=226781778.0
C[3]=226590552.0
C[4]=226428556.0
C[5]=226222312.0
C[6]=225918220.0
C[7]=224514963.0
C[8]=224180156.0
C[9]=223765009.0
C[10]=223625179.0
C[11]=0.0
y[0]=5
y[1]=10
y[2]=7
y[3]=0
y[4]=1
y[5]=9
y[6]=8
y[7]=6
y[8]=10
y[9]=10
y[10]=2
y[11]=6
y[12]=9
y[13]=1
y[14]=2
y[15]=8
y[16]=2
y[17]=1
y[18]=9
y[19]=4
y[20]=10
y[21]=1
y[22]=2
y[23]=0
y[24]=4
y[25]=2
y[26]=4
y[27]=2
y[28]=6
y[29]=4
y[30]=0
y[31]=1
y[32]=1
y[33]=8
y[34]=8
y[35]=10
y[36]=4
y[37]=0
y[38]=2
y[39]=5
y[40]=8
y[41]=4
y[42]=0
y[43]=9
y[44]=1
y[45]=3
y[46]=9
y[47]=2
y[48]=7
y[49]=4
y[50]=5
y[51]=10
y[52]=10
y[53]=9
y[54]=0
y[55]=5
y[56]=3
y[57]=6
y[58]=5
y[59]=0
y[60]=3
y[61]=5
y[62]=7
y[63]=7
y[64]=10
y[65]=7
y[66]=7
y[67]=1
y[68]=3
y[69]=2
y[70]=5
y[71]=5
y[72]=9
y[73]=8
y[74]=5
y[75]=6
y[76]=1
y[77]=3
