data/solutions/recovery/degenerate/intermediate/flexible/degenerate_intermediate_instance23/25.log

Log started (V12.6.3.0) Sat Apr 21 15:10:24 2018

New value for default parallel thread count: 1

Problem '/tmp/tmp5sbnjP.pyomo.lp' read.
Read time = 0.01 sec. (0.83 ticks)

Problem name         : /tmp/tmp5sbnjP.pyomo.lp
Objective sense      : Minimize
Variables            :     950  [Nneg: 1,  Binary: 936,  General Integer: 13]
Objective nonzeros   :       1
Linear constraints   :     182  [Less: 90,  Equal: 92]
  Nonzeros           :   59401
  RHS nonzeros       :     157

Variables            : Min LB: 0.000000         Max UB: 1.000000       
Objective nonzeros   : Min   : 1.000000         Max   : 1.000000       
Linear constraints   :
  Nonzeros           : Min   : 1.000000         Max   : 6.145599e+07   
  RHS nonzeros       : Min   : 1.000000         Max   : 8.000000       
Tried aggregator 2 times.
MIP Presolve eliminated 82 rows and 141 columns.
Aggregator did 5 substitutions.
Reduced MIP has 95 rows, 804 columns, and 2237 nonzeros.
Reduced MIP has 792 binaries, 12 generals, 0 SOSs, and 0 indicators.
Presolve time = 0.01 sec. (10.78 ticks)
Found incumbent of value 7.7413411e+08 after 0.01 sec. (12.30 ticks)
Probing time = 0.00 sec. (1.59 ticks)
Tried aggregator 1 time.
Reduced MIP has 95 rows, 804 columns, and 2237 nonzeros.
Reduced MIP has 792 binaries, 12 generals, 0 SOSs, and 0 indicators.
Presolve time = 0.00 sec. (1.14 ticks)
Probing time = 0.00 sec. (1.59 ticks)
Clique table members: 72.
MIP emphasis: balance optimality and feasibility.
MIP search method: dynamic search.
Parallel mode: none, using 1 thread.
Root relaxation solution time = 0.00 sec. (1.59 ticks)

        Nodes                                         Cuts/
   Node  Left     Objective  IInf  Best Integer    Best Bound    ItCnt     Gap

*     0+    0                       7.74134e+08        0.0000           100.00%
      0     0   2.25673e+08    31   7.74134e+08   2.25673e+08      142   70.85%
      0     0   2.25673e+08    29   7.74134e+08      Fract: 6      165   70.85%
      0     0   2.25673e+08    25   7.74134e+08      Fract: 2      191   70.85%
*     0+    0                       2.48518e+08   2.25673e+08             9.19%
*     0+    0                       2.46677e+08   2.25673e+08             8.51%
*     0+    0                       2.45680e+08   2.25673e+08             8.14%
*     0+    0                       2.40896e+08   2.25673e+08             6.32%
      0     2   2.25673e+08    16   2.40896e+08   2.25673e+08      191    6.32%
Elapsed time = 0.05 sec. (56.30 ticks, tree = 0.01 MB, solutions = 5)
*    30+   30                       2.35712e+08   2.25673e+08             4.26%
*    50+   46                       2.35108e+08   2.25673e+08             4.01%
*   150+  114                       2.33198e+08   2.25673e+08             3.23%
*   150+  113                       2.32559e+08   2.25673e+08             2.96%
*   150+  109                       2.31919e+08   2.25673e+08             2.69%
*   499+  348                       2.30857e+08   2.25673e+08             2.25%
    501   350   2.25673e+08    25   2.30857e+08   2.25673e+08     3294    2.25%
    502   350   2.25673e+08    24   2.30857e+08   2.25673e+08     3299    2.25%
    503   350   2.25673e+08    23   2.30857e+08   2.25673e+08     3301    2.25%
    504   350   2.25673e+08    25   2.30857e+08   2.25673e+08     3306    2.25%
    505   351   2.25673e+08    23   2.30857e+08   2.25673e+08     3310    2.25%
    506   352   2.25673e+08    27   2.30857e+08   2.25673e+08     3317    2.25%
    507   353   2.25673e+08    23   2.30857e+08   2.25673e+08     3323    2.25%
    508   353   2.25673e+08    23   2.30857e+08   2.25673e+08     3324    2.25%
    509   354   2.25673e+08    25   2.30857e+08   2.25673e+08     3336    2.25%
*   701+  233                       2.29936e+08   2.25673e+08             1.85%
*   801+  179                       2.29837e+08   2.25673e+08             1.81%
*  1101+  269                       2.29393e+08   2.25673e+08             1.62%
   1101   271   2.28287e+08    24   2.29393e+08   2.25673e+08     5897    1.62%
Elapsed time = 0.91 sec. (1097.55 ticks, tree = 0.17 MB, solutions = 14)
*  1201+  340                       2.29252e+08   2.25673e+08             1.56%
*  1301+  406                       2.29194e+08   2.25673e+08             1.54%
   2711  1466   2.25673e+08    21   2.29194e+08   2.25673e+08    11766    1.54%
   2712  1467   2.25673e+08    20   2.29194e+08   2.25673e+08    11772    1.54%
   2713  1468   2.25673e+08    21   2.29194e+08   2.25673e+08    11775    1.54%
   2714  1469   2.25673e+08    20   2.29194e+08   2.25673e+08    11777    1.54%
   2715  1470   2.25673e+08    21   2.29194e+08   2.25673e+08    11780    1.54%
   2716  1471   2.25673e+08    22   2.29194e+08   2.25673e+08    11781    1.54%
   2717  1472   2.25673e+08    21   2.29194e+08   2.25673e+08    11782    1.54%
   2718  1473   2.25673e+08    21   2.29194e+08   2.25673e+08    11785    1.54%
   2719  1474   2.25673e+08    22   2.29194e+08   2.25673e+08    11788    1.54%
   2720  1475   2.25673e+08    21   2.29194e+08   2.25673e+08    11791    1.54%
Elapsed time = 1.69 sec. (2054.35 ticks, tree = 0.91 MB, solutions = 16)
   7002  5081   2.26783e+08    28   2.29194e+08   2.25673e+08    27214    1.54%
   7003  5082   2.26783e+08    28   2.29194e+08   2.25673e+08    27216    1.54%
   7004  5083   2.26783e+08    28   2.29194e+08   2.25673e+08    27222    1.54%
   7005  5084   2.26783e+08    29   2.29194e+08   2.25673e+08    27224    1.54%
   7006  5085   2.26783e+08    29   2.29194e+08   2.25673e+08    27225    1.54%
   7007  5086   2.26783e+08    29   2.29194e+08   2.25673e+08    27226    1.54%
   7008  5087   2.26783e+08    29   2.29194e+08   2.25673e+08    27229    1.54%
   7009  5088   2.26783e+08    29   2.29194e+08   2.25673e+08    27231    1.54%
   7010  5089   2.26783e+08    30   2.29194e+08   2.25673e+08    27232    1.54%
   7011  5090   2.26783e+08    31   2.29194e+08   2.25673e+08    27234    1.54%
Elapsed time = 2.44 sec. (3010.07 ticks, tree = 3.12 MB, solutions = 16)
  10461  7760   2.25673e+08    23   2.29194e+08   2.25673e+08    42411    1.54%
  10462  7761   2.25673e+08    19   2.29194e+08   2.25673e+08    42422    1.54%
  10463  7762   2.25673e+08    19   2.29194e+08   2.25673e+08    42428    1.54%
  10464  7763   2.25673e+08    17   2.29194e+08   2.25673e+08    42429    1.54%
  10465  7764   2.25673e+08    19   2.29194e+08   2.25673e+08    42434    1.54%
  10466  7765   2.25673e+08    19   2.29194e+08   2.25673e+08    42435    1.54%
  10467  7766   2.25673e+08    19   2.29194e+08   2.25673e+08    42436    1.54%
  10468  7767   2.25673e+08    19   2.29194e+08   2.25673e+08    42437    1.54%
  10469  7768   2.25673e+08    19   2.29194e+08   2.25673e+08    42440    1.54%
  10470  7769   2.25673e+08    19   2.29194e+08   2.25673e+08    42441    1.54%
Elapsed time = 3.23 sec. (3972.95 ticks, tree = 4.73 MB, solutions = 16)
* 12995  9360      integral     0   2.29175e+08   2.25673e+08    57425    1.53%
* 14143  9598      integral     0   2.28926e+08   2.25673e+08    65128    1.42%
  14159  9604   2.27076e+08    30   2.28926e+08   2.25673e+08    65406    1.42%
  14160  9605   2.27076e+08    30   2.28926e+08   2.25673e+08    65407    1.42%
  14161  9606   2.27076e+08    29   2.28926e+08   2.25673e+08    65410    1.42%
  14162  9607   2.27076e+08    30   2.28926e+08   2.25673e+08    65415    1.42%
  14163  9608   2.27076e+08    29   2.28926e+08   2.25673e+08    65417    1.42%
  14164  9609   2.27076e+08    29   2.28926e+08   2.25673e+08    65420    1.42%
  14165  9610   2.27076e+08    31   2.28926e+08   2.25673e+08    65421    1.42%
  14166  9611   2.27076e+08    31   2.28926e+08   2.25673e+08    65423    1.42%
  14167  9612   2.27076e+08    30   2.28926e+08   2.25673e+08    65425    1.42%
  14168  9613   2.27076e+08    31   2.28926e+08   2.25673e+08    65426    1.42%
Elapsed time = 4.01 sec. (4928.96 ticks, tree = 6.06 MB, solutions = 18)
* 16978+ 9888                       2.27986e+08   2.25673e+08             1.01%
  17304 10127   2.25971e+08    34   2.27986e+08   2.25673e+08    88978    1.01%
  17305 10128   2.25971e+08    34   2.27986e+08   2.25673e+08    88982    1.01%
  17306 10129   2.25971e+08    37   2.27986e+08   2.25673e+08    88983    1.01%
  17307 10130   2.25971e+08    34   2.27986e+08   2.25673e+08    88984    1.01%
  17308 10131   2.25971e+08    34   2.27986e+08   2.25673e+08    88988    1.01%
  17309 10132   2.25971e+08    34   2.27986e+08   2.25673e+08    88989    1.01%
  17310 10133   2.25971e+08    33   2.27986e+08   2.25673e+08    88991    1.01%
  17311 10134   2.25971e+08    33   2.27986e+08   2.25673e+08    88995    1.01%
  17312 10134   2.27296e+08    35   2.27986e+08   2.25673e+08    89004    1.01%
  17313 10134   2.27348e+08    35   2.27986e+08   2.25673e+08    89005    1.01%
Elapsed time = 4.76 sec. (5884.11 ticks, tree = 6.26 MB, solutions = 19)
  20043 11770   2.25747e+08    26   2.27986e+08   2.25673e+08   113539    1.01%
  20044 11771   2.25747e+08    26   2.27986e+08   2.25673e+08   113541    1.01%
  20045 11772   2.25747e+08    25   2.27986e+08   2.25673e+08   113555    1.01%
  20046 11773   2.25747e+08    26   2.27986e+08   2.25673e+08   113566    1.01%
  20047 11774   2.25747e+08    26   2.27986e+08   2.25673e+08   113574    1.01%
  20048 11775   2.26606e+08    28   2.27986e+08   2.25673e+08   113594    1.01%
  20049 11776   2.26606e+08    24   2.27986e+08   2.25673e+08   113595    1.01%
  20050 11777   2.26606e+08    23   2.27986e+08   2.25673e+08   113600    1.01%
  20051 11777   2.26606e+08    23   2.27986e+08   2.25673e+08   113609    1.01%
  20052 11778   2.26606e+08    22   2.27986e+08   2.25673e+08   113610    1.01%
Elapsed time = 5.51 sec. (6842.96 ticks, tree = 7.24 MB, solutions = 19)
  22562 13574   2.25673e+08    25   2.27986e+08   2.25673e+08   138545    1.01%
  22563 13575   2.25673e+08    24   2.27986e+08   2.25673e+08   138559    1.01%
  22564 13576   2.25673e+08    20   2.27986e+08   2.25673e+08   138565    1.01%
  22565 13577   2.25673e+08    21   2.27986e+08   2.25673e+08   138568    1.01%
  22566 13578   2.26738e+08    30   2.27986e+08   2.25673e+08   138618    1.01%
  22567 13579   2.26738e+08    31   2.27986e+08   2.25673e+08   138621    1.01%
  22568 13578        cutoff         2.27986e+08   2.25673e+08   138623    1.01%
  22569 13577        cutoff         2.27986e+08   2.25673e+08   138626    1.01%
  22570 13576    infeasible         2.27986e+08   2.25673e+08   138626    1.01%
  22571 13575        cutoff         2.27986e+08   2.25673e+08   138663    1.01%
Elapsed time = 6.24 sec. (7800.58 ticks, tree = 8.30 MB, solutions = 19)
  25081 15573        cutoff         2.27986e+08   2.25673e+08   164789    1.01%
  25082 15574   2.27217e+08    25   2.27986e+08   2.25673e+08   164901    1.01%
  25083 15575   2.27217e+08    13   2.27986e+08   2.25673e+08   164926    1.01%
  25084 15576   2.27217e+08    13   2.27986e+08   2.25673e+08   164935    1.01%
  25085 15577   2.27217e+08    13   2.27986e+08   2.25673e+08   164937    1.01%
  25086 15578   2.27217e+08    13   2.27986e+08   2.25673e+08   164938    1.01%
  25087 15579   2.27217e+08    14   2.27986e+08   2.25673e+08   164940    1.01%
  25088 15580   2.27217e+08    14   2.27986e+08   2.25673e+08   164943    1.01%
  25089 15581   2.27217e+08    14   2.27986e+08   2.25673e+08   164946    1.01%
  25090 15582   2.27217e+08    14   2.27986e+08   2.25673e+08   164951    1.01%
Elapsed time = 6.98 sec. (8762.99 ticks, tree = 9.45 MB, solutions = 19)
  26767 16513   2.25673e+08    23   2.27986e+08   2.25673e+08   189175    1.01%
  26768 16514   2.25673e+08    23   2.27986e+08   2.25673e+08   189234    1.01%
  26769 16515   2.26193e+08    31   2.27986e+08   2.25673e+08   189374    1.01%
  26770 16514        cutoff         2.27986e+08   2.25673e+08   189392    1.01%
  26771 16513        cutoff         2.27986e+08   2.25673e+08   189423    1.01%
  26772 16512    infeasible         2.27986e+08   2.25673e+08   189512    1.01%
  26773 16511        cutoff         2.27986e+08   2.25673e+08   189630    1.01%
  26774 16510    infeasible         2.27986e+08   2.25673e+08   189630    1.01%
  26775 16509    infeasible         2.27986e+08   2.25673e+08   189630    1.01%
  33104 21747        cutoff         2.27986e+08   2.25673e+08   264621    1.01%
Elapsed time = 9.89 sec. (12577.74 ticks, tree = 13.51 MB, solutions = 19)
  39640 26233   2.26738e+08    29   2.27986e+08   2.25673e+08   354082    1.01%
  39641 26232        cutoff         2.27986e+08   2.25673e+08   354085    1.01%
  39642 26231        cutoff         2.27986e+08   2.25673e+08   354108    1.01%
  39643 26232   2.25673e+08    22   2.27986e+08   2.25673e+08   354172    1.01%
  39644 26233   2.25673e+08    23   2.27986e+08   2.25673e+08   354190    1.01%
  39645 26234   2.25673e+08    23   2.27986e+08   2.25673e+08   354191    1.01%
  39646 26235   2.25673e+08    21   2.27986e+08   2.25673e+08   354243    1.01%
  39647 26236   2.25673e+08    20   2.27986e+08   2.25673e+08   354261    1.01%
  39648 26237   2.25673e+08    20   2.27986e+08   2.25673e+08   354285    1.01%
  39649 26238   2.25673e+08    21   2.27986e+08   2.25673e+08   354286    1.01%
Elapsed time = 12.78 sec. (16403.55 ticks, tree = 16.18 MB, solutions = 19)
  45362 30680   2.26995e+08    33   2.27986e+08   2.25673e+08   439898    1.01%
  45363 30681   2.26995e+08    33   2.27986e+08   2.25673e+08   439899    1.01%
  45364 30681   2.27307e+08    39   2.27986e+08   2.25673e+08   439911    1.01%
  45365 30680        cutoff         2.27986e+08   2.25673e+08   439922    1.01%
  45366 30679        cutoff         2.27986e+08   2.25673e+08   439924    1.01%
  45367 30680   2.25679e+08    33   2.27986e+08   2.25673e+08   440206    1.01%
  45368 30681   2.25679e+08    33   2.27986e+08   2.25673e+08   440212    1.01%
  45369 30682   2.25680e+08    34   2.27986e+08   2.25673e+08   440214    1.01%
  45370 30683   2.25680e+08    34   2.27986e+08   2.25673e+08   440228    1.01%
  45371 30684   2.25680e+08    34   2.27986e+08   2.25673e+08   440234    1.01%
Elapsed time = 15.61 sec. (20233.09 ticks, tree = 18.87 MB, solutions = 19)
  51096 35592        cutoff         2.27986e+08   2.25673e+08   520060    1.01%
  51097 35593   2.25673e+08    33   2.27986e+08   2.25673e+08   520195    1.01%
  51098 35594   2.25673e+08    33   2.27986e+08   2.25673e+08   520199    1.01%
  51099 35595   2.25673e+08    33   2.27986e+08   2.25673e+08   520200    1.01%
  51100 35596   2.25673e+08    33   2.27986e+08   2.25673e+08   520226    1.01%
  51101 35597   2.25673e+08    34   2.27986e+08   2.25673e+08   520233    1.01%
  51102 35598   2.25673e+08    29   2.27986e+08   2.25673e+08   520253    1.01%
  51103 35599   2.25673e+08    30   2.27986e+08   2.25673e+08   520271    1.01%
  51104 35600   2.25673e+08    31   2.27986e+08   2.25673e+08   520281    1.01%
  51105 35601   2.25673e+08    30   2.27986e+08   2.25673e+08   520286    1.01%
Elapsed time = 18.40 sec. (24061.08 ticks, tree = 22.74 MB, solutions = 19)
  54732 37825        cutoff         2.27986e+08   2.25673e+08   601285    1.01%
  54733 37824        cutoff         2.27986e+08   2.25673e+08   601355    1.01%
  54734 37825   2.27013e+08    19   2.27986e+08   2.25673e+08   601548    1.01%
  54735 37824        cutoff         2.27986e+08   2.25673e+08   601609    1.01%
  54736 37823        cutoff         2.27986e+08   2.25673e+08   601610    1.01%
  54737 37822        cutoff         2.27986e+08   2.25673e+08   601670    1.01%
  54738 37821        cutoff         2.27986e+08   2.25673e+08   601688    1.01%
  54739 37822   2.27391e+08    41   2.27986e+08   2.25673e+08   601923    1.01%
  54740 37823   2.27880e+08    30   2.27986e+08   2.25673e+08   601932    1.01%
  54741 37824   2.27880e+08    24   2.27986e+08   2.25673e+08   601937    1.01%
Elapsed time = 21.24 sec. (27901.49 ticks, tree = 24.16 MB, solutions = 19)
  59339 41491   2.26277e+08    34   2.27986e+08   2.25673e+08   673689    1.01%
  59340 41492   2.26277e+08    34   2.27986e+08   2.25673e+08   673691    1.01%
  59341 41493   2.26282e+08    33   2.27986e+08   2.25673e+08   673694    1.01%
  59342 41494   2.26283e+08    34   2.27986e+08   2.25673e+08   673696    1.01%
  59343 41495   2.26285e+08    34   2.27986e+08   2.25673e+08   673701    1.01%
  59344 41496   2.26286e+08    33   2.27986e+08   2.25673e+08   673704    1.01%
  59345 41497   2.26304e+08    36   2.27986e+08   2.25673e+08   673710    1.01%
  59346 41498   2.26305e+08    36   2.27986e+08   2.25673e+08   673711    1.01%
  59347 41499   2.26355e+08    39   2.27986e+08   2.25673e+08   673714    1.01%
  59348 41500   2.26386e+08    33   2.27986e+08   2.25673e+08   673717    1.01%
Elapsed time = 24.64 sec. (31718.82 ticks, tree = 26.45 MB, solutions = 19)
  64883 46422        cutoff         2.27986e+08   2.25673e+08   748073    1.01%
  64884 46423   2.25673e+08    25   2.27986e+08   2.25673e+08   748085    1.01%
  64885 46424   2.25673e+08    25   2.27986e+08   2.25673e+08   748127    1.01%
  64886 46423        cutoff         2.27986e+08   2.25673e+08   748191    1.01%
  64887 46424   2.25673e+08    25   2.27986e+08   2.25673e+08   748197    1.01%
  64888 46425   2.26738e+08    27   2.27986e+08   2.25673e+08   748484    1.01%
  64889 46424        cutoff         2.27986e+08   2.25673e+08   748495    1.01%
  64890 46425   2.27468e+08    22   2.27986e+08   2.25673e+08   748538    1.01%
  64891 46424        cutoff         2.27986e+08   2.25673e+08   748549    1.01%
  64892 46423        cutoff         2.27986e+08   2.25673e+08   748558    1.01%
Elapsed time = 28.14 sec. (35554.44 ticks, tree = 29.36 MB, solutions = 19)
  69786 50427   2.26738e+08    30   2.27986e+08   2.25673e+08   820751    1.01%
  69787 50428   2.26738e+08    35   2.27986e+08   2.25673e+08   820764    1.01%
  69788 50429   2.26738e+08    35   2.27986e+08   2.25673e+08   820766    1.01%
  69789 50428        cutoff         2.27986e+08   2.25673e+08   820808    1.01%
  69790 50429   2.27436e+08    31   2.27986e+08   2.25673e+08   820826    1.01%
  69791 50430   2.27805e+08    28   2.27986e+08   2.25673e+08   820829    1.01%
  69792 50430   2.27805e+08    27   2.27986e+08   2.25673e+08   820830    1.01%
  69793 50430   2.27805e+08    27   2.27986e+08   2.25673e+08   820831    1.01%
  69794 50431   2.27805e+08    28   2.27986e+08   2.25673e+08   820845    1.01%
  69795 50432   2.27805e+08    30   2.27986e+08   2.25673e+08   820846    1.01%
Elapsed time = 31.63 sec. (39377.25 ticks, tree = 31.85 MB, solutions = 19)
  74738 54192   2.25673e+08    24   2.27986e+08   2.25673e+08   899595    1.01%
  74739 54193   2.25673e+08    29   2.27986e+08   2.25673e+08   899618    1.01%
  74740 54194   2.25673e+08    28   2.27986e+08   2.25673e+08   899619    1.01%
  74741 54195   2.25673e+08    26   2.27986e+08   2.25673e+08   899621    1.01%
  74742 54196   2.25673e+08    26   2.27986e+08   2.25673e+08   899622    1.01%
  74743 54197   2.25673e+08    27   2.27986e+08   2.25673e+08   899628    1.01%
  74744 54198   2.25673e+08    23   2.27986e+08   2.25673e+08   899629    1.01%
  74745 54199   2.25673e+08    26   2.27986e+08   2.25673e+08   899669    1.01%
  74746 54200   2.25673e+08    27   2.27986e+08   2.25673e+08   899673    1.01%
  74747 54201   2.25673e+08    27   2.27986e+08   2.25673e+08   899683    1.01%
Elapsed time = 35.17 sec. (43201.36 ticks, tree = 34.24 MB, solutions = 19)
  79668 57409   2.25673e+08    24   2.27986e+08   2.25673e+08   972706    1.01%
  79669 57410   2.25673e+08    25   2.27986e+08   2.25673e+08   972708    1.01%
  79670 57411   2.25673e+08    29   2.27986e+08   2.25673e+08   972715    1.01%
  79671 57412   2.25673e+08    28   2.27986e+08   2.25673e+08   972729    1.01%
  79672 57413   2.25673e+08    27   2.27986e+08   2.25673e+08   972731    1.01%
  79673 57414   2.25673e+08    28   2.27986e+08   2.25673e+08   972737    1.01%
  79674 57415   2.25673e+08    32   2.27986e+08   2.25673e+08   972748    1.01%
  79675 57416   2.25673e+08    27   2.27986e+08   2.25673e+08   972766    1.01%
  79676 57417   2.25673e+08    28   2.27986e+08   2.25673e+08   972773    1.01%
  79677 57418   2.25673e+08    29   2.27986e+08   2.25673e+08   972800    1.01%
Elapsed time = 38.66 sec. (47024.28 ticks, tree = 36.24 MB, solutions = 19)
  84219 60754   2.26452e+08    26   2.27986e+08   2.25673e+08  1049732    1.01%
  84220 60755   2.27973e+08    27   2.27986e+08   2.25673e+08  1049750    1.01%
  84221 60754        cutoff         2.27986e+08   2.25673e+08  1049761    1.01%
  84222 60753        cutoff         2.27986e+08   2.25673e+08  1049762    1.01%
  84223 60754   2.25673e+08    36   2.27986e+08   2.25673e+08  1049841    1.01%
  84224 60755   2.25673e+08    32   2.27986e+08   2.25673e+08  1049844    1.01%
  84225 60756   2.25673e+08    32   2.27986e+08   2.25673e+08  1049851    1.01%
  84226 60757   2.25673e+08    34   2.27986e+08   2.25673e+08  1049867    1.01%
  84227 60758   2.25673e+08    36   2.27986e+08   2.25673e+08  1049878    1.01%
  84228 60759   2.25673e+08    34   2.27986e+08   2.25673e+08  1049879    1.01%
Elapsed time = 42.21 sec. (50851.38 ticks, tree = 38.33 MB, solutions = 19)
  89468 64984        cutoff         2.27986e+08   2.25673e+08  1125670    1.01%
  89469 64983        cutoff         2.27986e+08   2.25673e+08  1125823    1.01%
  89470 64982        cutoff         2.27986e+08   2.25673e+08  1125927    1.01%
  89471 64981    infeasible         2.27986e+08   2.25673e+08  1125969    1.01%
  89472 64981   2.26738e+08    37   2.27986e+08   2.25673e+08  1126059    1.01%
  89473 64982   2.26738e+08    33   2.27986e+08   2.25673e+08  1126073    1.01%
  89474 64983   2.26738e+08    32   2.27986e+08   2.25673e+08  1126083    1.01%
  89475 64984   2.26738e+08    33   2.27986e+08   2.25673e+08  1126095    1.01%
  89476 64984   2.26738e+08    30   2.27986e+08   2.25673e+08  1126096    1.01%
  89477 64985   2.26738e+08    27   2.27986e+08   2.25673e+08  1126104    1.01%
Elapsed time = 45.70 sec. (54684.19 ticks, tree = 40.88 MB, solutions = 19)
  94354 68699   2.25876e+08    39   2.27986e+08   2.25673e+08  1206006    1.01%
  94355 68700   2.25876e+08    39   2.27986e+08   2.25673e+08  1206007    1.01%
  94356 68701   2.25878e+08    42   2.27986e+08   2.25673e+08  1206012    1.01%
  94357 68702   2.25908e+08    45   2.27986e+08   2.25673e+08  1206020    1.01%
  94358 68703   2.25921e+08    41   2.27986e+08   2.25673e+08  1206028    1.01%
  94359 68704   2.25935e+08    43   2.27986e+08   2.25673e+08  1206032    1.01%
  94360 68705   2.25935e+08    42   2.27986e+08   2.25673e+08  1206038    1.01%
  94361 68706   2.25970e+08    46   2.27986e+08   2.25673e+08  1206052    1.01%
  94362 68707   2.25974e+08    49   2.27986e+08   2.25673e+08  1206059    1.01%
  94363 68708   2.25983e+08    49   2.27986e+08   2.25673e+08  1206065    1.01%
Elapsed time = 49.21 sec. (58502.10 ticks, tree = 45.08 MB, solutions = 19)
  99196 72493   2.25673e+08    63   2.27986e+08   2.25673e+08  1283593    1.01%
  99197 72494   2.25673e+08    60   2.27986e+08   2.25673e+08  1283595    1.01%
  99198 72495   2.25673e+08    59   2.27986e+08   2.25673e+08  1283596    1.01%
  99199 72496   2.25673e+08    59   2.27986e+08   2.25673e+08  1283597    1.01%
  99200 72497   2.25673e+08    57   2.27986e+08   2.25673e+08  1283598    1.01%
  99201 72498   2.25673e+08    51   2.27986e+08   2.25673e+08  1283606    1.01%
  99202 72499   2.25673e+08    49   2.27986e+08   2.25673e+08  1283615    1.01%
  99203 72500   2.25673e+08    43   2.27986e+08   2.25673e+08  1283620    1.01%
  99204 72501   2.25673e+08    43   2.27986e+08   2.25673e+08  1283630    1.01%
  99205 72502   2.25673e+08    41   2.27986e+08   2.25673e+08  1283636    1.01%
Elapsed time = 52.73 sec. (62323.46 ticks, tree = 47.40 MB, solutions = 19)
 104395 76781   2.27622e+08    13   2.27986e+08   2.25673e+08  1358590    1.01%
 104396 76782   2.27622e+08    15   2.27986e+08   2.25673e+08  1358594    1.01%
 104397 76783   2.27622e+08    16   2.27986e+08   2.25673e+08  1358595    1.01%
 104398 76784   2.27622e+08    14   2.27986e+08   2.25673e+08  1358596    1.01%
 104399 76785   2.27622e+08    13   2.27986e+08   2.25673e+08  1358597    1.01%
 104400 76786   2.27622e+08    14   2.27986e+08   2.25673e+08  1358601    1.01%
 104401 76787   2.27622e+08    14   2.27986e+08   2.25673e+08  1358602    1.01%
 104402 76786        cutoff         2.27986e+08   2.25673e+08  1358603    1.01%
 104403 76787   2.27622e+08    14   2.27986e+08   2.25673e+08  1358610    1.01%
 104404 76786        cutoff         2.27986e+08   2.25673e+08  1358611    1.01%
Elapsed time = 56.18 sec. (66141.41 ticks, tree = 49.99 MB, solutions = 19)
 109159 80164   2.25708e+08    38   2.27986e+08   2.25673e+08  1442346    1.01%
 109160 80165   2.25708e+08    36   2.27986e+08   2.25673e+08  1442347    1.01%
 109161 80166   2.25708e+08    36   2.27986e+08   2.25673e+08  1442362    1.01%
 109162 80167   2.25708e+08    30   2.27986e+08   2.25673e+08  1442363    1.01%
 109163 80168   2.25708e+08    33   2.27986e+08   2.25673e+08  1442374    1.01%
 109164 80168   2.26180e+08    43   2.27986e+08   2.25673e+08  1442463    1.01%
 109165 80169   2.26257e+08    41   2.27986e+08   2.25673e+08  1442467    1.01%
 109166 80169   2.26270e+08    42   2.27986e+08   2.25673e+08  1442470    1.01%
 109167 80169   2.26348e+08    40   2.27986e+08   2.25673e+08  1442471    1.01%
 109168 80170   2.26446e+08    39   2.27986e+08   2.25673e+08  1442473    1.01%
Elapsed time = 59.74 sec. (69962.88 ticks, tree = 52.07 MB, solutions = 19)
 113998 83866   2.26738e+08    29   2.27986e+08   2.25673e+08  1520024    1.01%
 113999 83867   2.26738e+08    31   2.27986e+08   2.25673e+08  1520029    1.01%
 114000 83868   2.26738e+08    29   2.27986e+08   2.25673e+08  1520037    1.01%
 114001 83868   2.26738e+08    27   2.27986e+08   2.25673e+08  1520039    1.01%
 114002 83869   2.26738e+08    27   2.27986e+08   2.25673e+08  1520040    1.01%
 114003 83870   2.26738e+08    28   2.27986e+08   2.25673e+08  1520041    1.01%
 114004 83871   2.26738e+08    28   2.27986e+08   2.25673e+08  1520042    1.01%
 114005 83872   2.26738e+08    28   2.27986e+08   2.25673e+08  1520046    1.01%
 114006 83873   2.26738e+08    28   2.27986e+08   2.25673e+08  1520047    1.01%
 114007 83874   2.26755e+08    26   2.27986e+08   2.25673e+08  1520048    1.01%
Elapsed time = 63.23 sec. (73781.44 ticks, tree = 54.33 MB, solutions = 19)
 118981 87377   2.26099e+08    28   2.27986e+08   2.25673e+08  1594919    1.01%
 118982 87378   2.25707e+08    25   2.27986e+08   2.25673e+08  1594926    1.01%
 118983 87379   2.27238e+08    25   2.27986e+08   2.25673e+08  1594953    1.01%
 118984 87378        cutoff         2.27986e+08   2.25673e+08  1594958    1.01%
 118985 87379   2.27238e+08    25   2.27986e+08   2.25673e+08  1594960    1.01%
 118986 87378        cutoff         2.27986e+08   2.25673e+08  1594968    1.01%
 118987 87377        cutoff         2.27986e+08   2.25673e+08  1594971    1.01%
 118988 87376        cutoff         2.27986e+08   2.25673e+08  1595001    1.01%
 118989 87377   2.26738e+08    30   2.27986e+08   2.25673e+08  1595150    1.01%
 118990 87378   2.27904e+08    23   2.27986e+08   2.25673e+08  1595174    1.01%
Elapsed time = 66.77 sec. (77607.16 ticks, tree = 56.53 MB, solutions = 19)
*120201+88003                       2.27985e+08   2.25673e+08             1.01%
 123642 90506   2.25989e+08    31   2.27985e+08   2.25673e+08  1667921    1.01%
 123643 90507   2.25989e+08    30   2.27985e+08   2.25673e+08  1667956    1.01%
 123644 90508   2.25989e+08    35   2.27985e+08   2.25673e+08  1667966    1.01%
 123645 90509   2.25989e+08    35   2.27985e+08   2.25673e+08  1667973    1.01%
 123646 90510   2.26326e+08    32   2.27985e+08   2.25673e+08  1668005    1.01%
 123647 90511   2.26412e+08    32   2.27985e+08   2.25673e+08  1668006    1.01%
 123648 90512   2.26429e+08    31   2.27985e+08   2.25673e+08  1668007    1.01%
 123649 90513   2.27039e+08    28   2.27985e+08   2.25673e+08  1668017    1.01%
 123650 90514   2.27339e+08    24   2.27985e+08   2.25673e+08  1668024    1.01%
 123651 90513        cutoff         2.27985e+08   2.25673e+08  1668028    1.01%
Elapsed time = 70.32 sec. (81430.81 ticks, tree = 58.43 MB, solutions = 20)
 128717 94478   2.26726e+08    28   2.27985e+08   2.25673e+08  1742461    1.01%
 128718 94478   2.26726e+08    28   2.27985e+08   2.25673e+08  1742462    1.01%
 128719 94478   2.26726e+08    28   2.27985e+08   2.25673e+08  1742463    1.01%
 128720 94479   2.26726e+08    28   2.27985e+08   2.25673e+08  1742464    1.01%
 128721 94480   2.26726e+08    27   2.27985e+08   2.25673e+08  1742466    1.01%
 128722 94481   2.26726e+08    27   2.27985e+08   2.25673e+08  1742467    1.01%
 128723 94481   2.26727e+08    25   2.27985e+08   2.25673e+08  1742469    1.01%
 128724 94480        cutoff         2.27985e+08   2.25673e+08  1742471    1.01%
 128725 94481   2.26008e+08    35   2.27985e+08   2.25673e+08  1742774    1.01%
 128726 94482   2.26008e+08    34   2.27985e+08   2.25673e+08  1742775    1.01%
Elapsed time = 73.80 sec. (85257.08 ticks, tree = 60.93 MB, solutions = 20)
 133576 98109        cutoff         2.27985e+08   2.25673e+08  1820584    1.01%
 133577 98108        cutoff         2.27985e+08   2.25673e+08  1820600    1.01%
 133578 98107        cutoff         2.27985e+08   2.25673e+08  1820726    1.01%
 133579 98106        cutoff         2.27985e+08   2.25673e+08  1820809    1.01%
 133580 98105        cutoff         2.27985e+08   2.25673e+08  1820872    1.01%
 133581 98104        cutoff         2.27985e+08   2.25673e+08  1820895    1.01%
 133582 98103        cutoff         2.27985e+08   2.25673e+08  1820926    1.01%
 133583 98102        cutoff         2.27985e+08   2.25673e+08  1821027    1.01%
 133584 98101        cutoff         2.27985e+08   2.25673e+08  1821148    1.01%
 133585 98102   2.25673e+08    29   2.27985e+08   2.25673e+08  1821218    1.01%
Elapsed time = 77.34 sec. (89096.88 ticks, tree = 63.23 MB, solutions = 20)
 138525 101572        cutoff         2.27985e+08   2.25673e+08  1903051    1.01%
 138526 101571        cutoff         2.27985e+08   2.25673e+08  1903183    1.01%
 138527 101572   2.25673e+08    26   2.27985e+08   2.25673e+08  1903218    1.01%
 138528 101573   2.25673e+08    27   2.27985e+08   2.25673e+08  1903256    1.01%
 138529 101574   2.25673e+08    24   2.27985e+08   2.25673e+08  1903257    1.01%
 138530 101575   2.25673e+08    24   2.27985e+08   2.25673e+08  1903263    1.01%
 138531 101574        cutoff         2.27985e+08   2.25673e+08  1903377    1.01%
 138532 101573        cutoff         2.27985e+08   2.25673e+08  1903485    1.01%
 138533 101574   2.25673e+08    58   2.27985e+08   2.25673e+08  1903657    1.01%
 138534 101575   2.25673e+08    57   2.27985e+08   2.25673e+08  1903659    1.01%
Elapsed time = 81.02 sec. (92933.61 ticks, tree = 65.40 MB, solutions = 20)
 143721 105588   2.26984e+08    31   2.27985e+08   2.25673e+08  1977002    1.01%
 143722 105589   2.26984e+08    28   2.27985e+08   2.25673e+08  1977005    1.01%
 143723 105590   2.26987e+08    29   2.27985e+08   2.25673e+08  1977020    1.01%
 143724 105591   2.27022e+08    29   2.27985e+08   2.25673e+08  1977022    1.01%
 143725 105590        cutoff         2.27985e+08   2.25673e+08  1977033    1.01%
 143726 105589        cutoff         2.27985e+08   2.25673e+08  1977036    1.01%
 143727 105588        cutoff         2.27985e+08   2.25673e+08  1977047    1.01%
 143728 105589   2.26458e+08    35   2.27985e+08   2.25673e+08  1977361    1.01%
 143729 105590   2.26458e+08    34   2.27985e+08   2.25673e+08  1977362    1.01%
 143730 105591   2.26458e+08    37   2.27985e+08   2.25673e+08  1977378    1.01%
Elapsed time = 84.59 sec. (96767.73 ticks, tree = 67.87 MB, solutions = 20)
*148801+102463                       2.27501e+08   2.25673e+08             0.80%
*148801+98479                       2.27271e+08   2.25673e+08             0.70%
 149035 98693   2.25673e+08    32   2.27271e+08   2.25673e+08  2051004    0.70%
 149036 98694   2.25673e+08    29   2.27271e+08   2.25673e+08  2051028    0.70%
 149037 98695   2.25673e+08    31   2.27271e+08   2.25673e+08  2051047    0.70%
 149038 98696   2.25673e+08    32   2.27271e+08   2.25673e+08  2051056    0.70%
 149039 98697   2.25673e+08    38   2.27271e+08   2.25673e+08  2051099    0.70%
 149040 98698   2.25673e+08    35   2.27271e+08   2.25673e+08  2051102    0.70%
 149041 98699   2.25673e+08    33   2.27271e+08   2.25673e+08  2051103    0.70%
 149042 98700   2.25673e+08    31   2.27271e+08   2.25673e+08  2051105    0.70%
 149043 98701   2.25673e+08    33   2.27271e+08   2.25673e+08  2051110    0.70%
 149044 98702   2.25673e+08    33   2.27271e+08   2.25673e+08  2051111    0.70%
Elapsed time = 88.10 sec. (100588.32 ticks, tree = 62.62 MB, solutions = 22)
 152643 101366   2.25826e+08    42   2.27271e+08   2.25673e+08  2113518    0.70%
 152644 101366   2.26444e+08    44   2.27271e+08   2.25673e+08  2113551    0.70%
 152645 101367   2.26613e+08    49   2.27271e+08   2.25673e+08  2113562    0.70%
 152646 101366        cutoff         2.27271e+08   2.25673e+08  2113565    0.70%
 152647 101365    infeasible         2.27271e+08   2.25673e+08  2113565    0.70%
 152648 101366   2.25673e+08    33   2.27271e+08   2.25673e+08  2113674    0.70%
 152649 101367   2.25673e+08    30   2.27271e+08   2.25673e+08  2113800    0.70%
 152650 101368   2.25819e+08    42   2.27271e+08   2.25673e+08  2113897    0.70%
 152651 101369   2.26510e+08    44   2.27271e+08   2.25673e+08  2114009    0.70%
 152652 101370   2.26510e+08    42   2.27271e+08   2.25673e+08  2114011    0.70%
Elapsed time = 91.65 sec. (104422.24 ticks, tree = 64.24 MB, solutions = 22)
 156175 104224   2.26106e+08    33   2.27271e+08   2.25673e+08  2161937    0.70%
 156176 104225   2.26189e+08    32   2.27271e+08   2.25673e+08  2161952    0.70%
 156177 104226   2.26194e+08    34   2.27271e+08   2.25673e+08  2161962    0.70%
 156178 104227   2.26198e+08    32   2.27271e+08   2.25673e+08  2161970    0.70%
 156179 104228   2.26319e+08    32   2.27271e+08   2.25673e+08  2161983    0.70%
 156180 104229   2.26707e+08    29   2.27271e+08   2.25673e+08  2161990    0.70%
 156181 104230   2.26707e+08    28   2.27271e+08   2.25673e+08  2161991    0.70%
 156182 104231   2.26707e+08    28   2.27271e+08   2.25673e+08  2161992    0.70%
 156183 104232   2.26707e+08    29   2.27271e+08   2.25673e+08  2161995    0.70%
 156184 104233   2.26707e+08    29   2.27271e+08   2.25673e+08  2161998    0.70%
Elapsed time = 95.02 sec. (108239.92 ticks, tree = 65.92 MB, solutions = 22)
 160946 107789   2.25673e+08    33   2.27271e+08   2.25673e+08  2243402    0.70%
 160947 107790   2.25673e+08    32   2.27271e+08   2.25673e+08  2243412    0.70%
 160948 107791   2.25673e+08    27   2.27271e+08   2.25673e+08  2243417    0.70%
 160949 107792   2.25673e+08    27   2.27271e+08   2.25673e+08  2243443    0.70%
 160950 107793   2.25673e+08    27   2.27271e+08   2.25673e+08  2243460    0.70%
 160951 107794   2.25673e+08    25   2.27271e+08   2.25673e+08  2243484    0.70%
 160952 107795   2.25673e+08    26   2.27271e+08   2.25673e+08  2243492    0.70%
 160953 107796   2.25673e+08    25   2.27271e+08   2.25673e+08  2243498    0.70%
 160954 107797   2.25673e+08    26   2.27271e+08   2.25673e+08  2243551    0.70%
 160955 107797   2.25958e+08    32   2.27271e+08   2.25673e+08  2243643    0.70%
Elapsed time = 98.54 sec. (112062.99 ticks, tree = 68.02 MB, solutions = 22)

Cover cuts applied:  463
Mixed integer rounding cuts applied:  7
Gomory fractional cuts applied:  5

Root node processing (before b&c):
  Real time             =    0.05 sec. (56.43 ticks)
Sequential b&c:
  Real time             =   99.95 sec. (113488.98 ticks)
                          ------------
Total (root+branch&cut) =  100.00 sec. (113545.41 ticks)

Solution pool: 22 solutions saved.

MIP - Time limit exceeded, integer feasible:  Objective =  2.2727093400e+08
Current MIP best bound =  2.2567326400e+08 (gap = 1.59767e+06, 0.70%)
Solution time =  100.00 sec.  Iterations = 2271798  Nodes = 162545 (108878)
Deterministic time = 113545.41 ticks  (1135.45 ticks/sec)


Incumbent solution written to file '/tmp/tmpV7OdwX.cplex.sol'.
